c t mc
c file mc2020_track1_005.cnf
p cnf 1548 937
324 0
-287 0
-288 0
-306 0
-323 0
-305 0
41 0
-83 0
88 0
-106 0
89 0
-107 0
124 0
125 0
153 0
189 0
-176 0
-182 0
-200 0
238 0
-244 0
-262 0
279 0
-280 0
298 0
281 0
299 0
316 0
-300 0
-317 0
-2 0
-3 0
-4 0
-5 0
-7 0
-8 0
-9 0
-10 0
-28 0
-11 0
-12 0
-15 0
-16 0
-17 0
-18 0
-47 0
-48 0
-55 0
-73 0
-91 0
-109 0
-92 0
-110 0
-111 0
-112 0
-62 0
-80 0
-67 0
-50 0
-68 0
-69 0
-53 0
-57 0
-75 0
-59 0
-82 0
-84 0
-90 0
-108 0
-94 0
-95 0
-100 0
-101 0
-119 0
-104 0
-136 0
-154 0
-139 0
-140 0
-141 0
-142 0
-143 0
-128 0
-146 0
-130 0
-152 0
-135 0
-167 0
-177 0
-162 0
-181 0
-199 0
-217 0
-218 0
-165 0
-183 0
-201 0
-169 0
-171 0
-190 0
-197 0
-187 0
-216 0
-205 0
-207 0
-233 0
-220 0
-221 0
-223 0
-242 0
-243 0
-252 0
-253 0
-271 0
-272 0
-290 0
-263 0
-255 0
-256 0
-274 0
-275 0
-261 0
-267 0
-293 0
-294 0
-320 0
-304 0
-1524 0
-322 0
-144 0
-180 0
-117 0
-241 0
-63 0
-268 0
-276 0
-156 0
-175 0
-170 0
-150 0
-148 0
-22 0
-26 0
-32 0
-39 0
-51 0
-56 0
-61 0
-65 0
-70 0
-76 0
-85 0
-118 0
-123 0
-151 0
-133 0
-158 0
-188 0
-202 0
-185 0
-224 0
-237 0
-249 0
-232 0
-251 0
-273 0
-278 0
-284 0
-310 0
-312 0
-314 0
-319 0
-79 0
-160 0
-208 0
-260 0
-313 0
-315 0
-29 0
-33 0
-74 0
-93 0
-40 0
-71 0
-295 -222 -296 -277 -206 -259 0
452 25 -42 -43 0
-453 42 -25 43 0
453 42 -25 -43 0
-454 25 42 43 0
454 25 42 -43 0
-1033 191 -174 192 0
1032 -192 -191 174 0
-405 -13 31 -30 0
405 -13 -31 -30 0
1488 291 308 -309 0
-1488 291 308 309 0
1487 -291 308 -309 0
-1487 -291 308 309 0
1486 -309 291 -308 0
-1486 309 291 -308 0
-398 6 -49 -31 0
1250 -248 -247 230 0
-1250 248 -247 230 0
-1029 -173 -172 191 0
465 6 -46 45 0
-465 6 46 45 0
464 -45 -46 -6 0
-464 -45 -6 46 0
1034 174 191 -192 0
463 6 -46 -45 0
-463 6 46 -45 0
-423 35 14 34 0
423 -35 14 34 0
-424 35 -14 34 0
424 -35 -14 34 0
-425 36 14 -35 0
425 -36 14 -35 0
-426 36 -14 -35 0
426 -35 -14 -36 0
-427 36 14 35 0
427 -36 14 35 0
-428 36 -14 35 0
-1032 192 -191 174 0
1494 -309 -311 -292 0
1031 -192 -191 -174 0
380 -24 23 6 0
408 13 30 -31 0
-408 13 30 31 0
-406 13 31 -30 0
407 -13 30 -31 0
-407 -13 30 31 0
-1496 309 311 -292 0
-1034 174 191 192 0
155 138 174 -173 0
-451 -25 -42 43 0
451 -25 -42 -43 0
-452 25 -42 43 0
-379 24 23 -6 0
378 -24 -23 6 0
379 23 -6 -24 0
1028 172 -191 173 0
1242 -245 228 -246 0
-1197 234 215 198 0
-755 -120 121 -103 0
755 -120 -121 -103 0
-756 -120 121 103 0
756 -120 -121 103 0
-757 -103 120 121 0
757 -103 120 -121 0
-758 121 103 120 0
758 -121 103 120 0
1197 -234 215 198 0
-1198 234 215 -198 0
1198 -234 215 -198 0
-734 114 97 115 0
733 -115 -97 114 0
-733 115 -97 114 0
732 -114 97 -115 0
-732 -114 97 115 0
823 -138 137 -120 0
-823 138 -120 137 0
822 -137 120 -138 0
-822 -137 120 138 0
821 -138 -137 -120 0
-821 138 -137 -120 0
422 -35 -14 -34 0
462 -45 27 44 0
-462 27 45 44 0
461 -27 44 -45 0
-461 -27 44 45 0
460 -45 27 -44 0
-460 27 45 -44 0
459 -45 -27 -44 0
-459 -27 45 -44 0
1485 -309 -291 -308 0
-1485 309 -291 -308 0
-1031 192 -191 -174 0
1030 -172 -191 173 0
-431 -20 -37 38 0
431 -20 -37 -38 0
-432 20 -37 38 0
432 20 -37 -38 0
-380 6 23 24 0
428 -36 -14 35 0
1079 -186 -204 203 0
-1079 204 203 -186 0
-1027 -173 191 172 0
1027 172 -191 -173 0
-1028 191 173 172 0
-377 24 -23 -6 0
377 -24 -23 -6 0
-378 24 -23 6 0
1496 309 -311 -292 0
258 -277 254 259 0
-250 285 266 -286 0
-1393 285 266 283 0
-258 -240 -222 -259 0
1029 -172 -191 -173 0
-1030 -172 173 191 0
258 277 254 -259 0
-496 36 54 -52 0
496 36 -54 -52 0
-497 -36 52 54 0
497 -36 52 -54 0
-498 36 52 54 0
498 52 -54 36 0
-1047 196 -178 -195 0
1047 -178 -196 -195 0
-984 179 161 178 0
1049 -178 -196 195 0
-1050 196 178 195 0
-1433 295 292 -277 0
1433 -277 292 -295 0
-1434 292 277 295 0
1434 292 277 -295 0
1536 -321 302 303 0
-1536 321 302 303 0
-999 -166 164 184 0
147 -129 164 -166 0
433 -20 37 -38 0
129 -166 164 -147 0
-64 46 -44 -45 0
723 -113 -58 37 0
258 -240 -222 259 0
102 103 49 66 0
204 186 -206 134 0
206 186 134 -204 0
-172 -134 -116 168 0
129 -147 149 -131 0
-286 285 250 -266 0
-1160 225 -206 222 0
-433 -20 37 38 0
-434 20 37 38 0
46 -64 44 45 0
434 20 37 -38 0
619 -66 -86 49 0
259 -258 222 -240 0
-258 240 -259 222 0
258 -240 -259 222 0
259 258 240 222 0
818 -137 -116 -99 0
258 240 -222 -259 0
-78 -96 37 58 0
-193 157 192 -174 0
906 -157 -159 -122 0
-254 -258 277 -259 0
1416 -291 -254 235 0
-173 -138 -155 174 0
-138 -155 121 157 0
155 138 157 121 0
1107 -193 210 -211 0
-1108 210 211 193 0
1108 -211 210 193 0
-1109 -211 -194 212 0
1109 -211 -194 -212 0
984 178 161 -179 0
-269 -215 266 250 0
-1416 291 235 -254 0
-1494 -309 311 -292 0
1415 -291 235 254 0
-1415 291 235 254 0
-418 -31 34 -14 0
-1106 193 -210 211 0
1105 -193 -210 -211 0
-1105 -193 -210 211 0
-1431 295 -292 -277 0
1431 -277 -292 -295 0
-1432 295 277 -292 0
1432 -292 277 -295 0
-421 35 -34 14 0
421 -35 -34 14 0
-422 35 -14 -34 0
-1048 196 178 -195 0
1033 191 -192 -174 0
406 13 -31 -30 0
1535 -321 302 -303 0
-1535 321 302 -303 0
1534 -302 -321 303 0
-1534 -302 321 303 0
1533 -302 -321 -303 0
-1533 -302 321 -303 0
1050 -196 195 178 0
495 -52 -54 -36 0
1048 -196 178 -195 0
-1049 196 -178 195 0
999 -166 164 -184 0
43 -97 96 -60 0
-365 -20 -1 21 0
365 -20 -1 -21 0
-366 -20 21 1 0
-258 240 -222 259 0
-129 147 149 -131 0
259 258 277 -254 0
259 -258 277 254 0
258 -277 -254 -259 0
-258 -277 254 -259 0
-134 -172 99 168 0
193 157 -192 -174 0
-258 -277 -254 259 0
364 -20 19 1 0
-364 20 19 1 0
363 -20 -1 19 0
-363 20 -1 19 0
362 -20 -19 1 0
-362 20 -19 1 0
361 -20 -19 -1 0
-361 20 -19 -1 0
-495 -36 54 -52 0
-466 46 -6 45 0
466 -46 45 -6 0
368 20 1 -21 0
-368 20 1 21 0
367 20 -1 -21 0
-619 -66 86 49 0
-957 -155 173 -172 0
957 -155 -172 -173 0
-958 155 173 -172 0
-1171 -227 -210 228 0
1170 -227 226 209 0
-1170 226 209 227 0
1169 -227 -209 226 0
-1169 227 -209 226 0
1168 -227 -226 209 0
1314 -245 -264 246 0
-1314 -245 264 246 0
-681 -99 102 66 0
681 -99 -102 66 0
1288 -258 240 -257 0
683 66 -102 99 0
-1335 234 -269 270 0
1335 234 -269 -270 0
-1336 -234 -269 270 0
-682 -99 -66 102 0
1336 -234 -269 -270 0
960 172 -173 155 0
1393 -285 283 266 0
-1289 -240 257 258 0
787 -129 -37 127 0
-787 129 -37 127 0
786 -129 37 -127 0
-786 129 37 -127 0
785 -129 -37 -127 0
-785 129 -37 -127 0
-1242 -245 228 246 0
1202 -236 -235 -163 0
-1202 236 -235 -163 0
-855 147 -127 -129 0
366 -20 1 -21 0
-367 20 -1 21 0
-1107 -193 210 211 0
1106 193 -210 -211 0
-856 129 -127 147 0
855 -129 -127 -147 0
856 129 -127 -147 0
-857 147 127 -129 0
857 -129 127 -147 0
-858 147 127 129 0
796 113 -129 -131 0
-796 113 -129 131 0
795 -113 -129 -131 0
-1337 270 234 269 0
1337 -270 234 269 0
-1338 270 -234 269 0
1338 -270 -234 269 0
1160 -225 -206 222 0
-1288 258 240 -257 0
621 66 -86 49 0
-621 66 86 49 0
-906 -157 159 -122 0
-695 105 -87 103 0
694 -105 -103 87 0
-694 105 -103 87 0
693 -105 -103 -87 0
-693 105 -103 -87 0
-1174 227 228 210 0
1173 227 -210 -228 0
-1173 227 -210 228 0
1172 210 -228 -227 0
-1172 -227 228 210 0
904 157 -159 -122 0
1313 -245 -264 -246 0
-1313 -245 264 -246 0
1289 -240 257 -258 0
-1290 240 257 258 0
-684 -66 99 102 0
1290 240 257 -258 0
1174 210 -228 227 0
696 -105 87 103 0
-666 98 -97 -44 0
666 -98 -44 -97 0
-904 157 159 -122 0
670 -98 81 -99 0
-670 -98 81 99 0
669 -99 -98 -81 0
684 -66 99 -102 0
-669 -81 -98 99 0
-1395 285 -283 266 0
1395 -285 -283 266 0
1112 194 211 -212 0
-1112 194 211 212 0
1111 -212 -194 211 0
-1111 -194 211 212 0
1110 -212 194 -211 0
-1110 212 194 -211 0
682 -66 -102 -99 0
-683 102 99 66 0
587 -60 -78 -77 0
-587 78 -77 -60 0
959 172 -155 -173 0
-960 172 173 155 0
-696 105 103 87 0
695 -105 103 -87 0
1196 -234 -198 -215 0
-1196 234 -198 -215 0
1195 -234 -215 198 0
-1195 234 -215 198 0
-1271 235 254 -236 0
1271 235 -254 -236 0
-1272 235 254 236 0
1272 235 -254 236 0
-1273 -235 254 -236 0
1273 -235 -254 -236 0
-1274 -235 254 236 0
1274 -235 -254 236 0
734 114 97 -115 0
1185 -231 230 -213 0
-793 129 -113 131 0
1312 246 -264 245 0
793 -113 -131 129 0
-1311 245 -246 264 0
788 -129 37 127 0
1203 -236 235 163 0
-820 137 -99 116 0
-818 137 -116 -99 0
1204 -236 235 -163 0
-1243 245 -228 246 0
1243 245 -228 -246 0
-1244 245 228 246 0
1244 245 228 -246 0
858 -147 127 129 0
1201 -236 -235 163 0
-1201 236 -235 163 0
-1287 258 -257 -240 0
731 -115 -97 -114 0
-731 115 -97 -114 0
730 113 96 -114 0
-730 113 96 114 0
729 113 -114 -96 0
-729 113 114 -96 0
1171 -227 -210 -228 0
958 155 -172 -173 0
-959 172 -155 173 0
590 77 60 -78 0
78 -590 60 77 0
589 -60 77 -78 0
-589 78 -60 77 0
588 -77 60 -78 0
-588 -77 60 78 0
-724 113 37 58 0
-31 6 -30 49 0
671 -99 98 -81 0
-672 98 81 99 0
-723 113 37 -58 0
672 98 81 -99 0
1241 -245 -228 -246 0
1217 -239 -222 -240 0
-1218 240 -239 222 0
-1241 -245 -228 246 0
-1185 231 -213 230 0
1218 -240 -239 222 0
-1219 -222 239 240 0
1219 -222 239 -240 0
-1312 245 264 246 0
-1220 240 239 222 0
1220 -240 239 222 0
824 -138 137 120 0
-824 138 120 137 0
-795 -113 131 -129 0
794 113 -131 129 0
-794 113 131 129 0
1287 -258 -257 -240 0
-1168 227 209 -226 0
1167 -227 -209 -226 0
-1167 227 -209 -226 0
1162 -225 -222 -206 0
-1162 225 -222 -206 0
820 -137 -99 116 0
-1203 236 235 163 0
1311 245 -264 -246 0
-788 129 37 127 0
-1217 -239 -222 240 0
-1204 236 235 -163 0
418 -31 -14 -34 0
-52 -14 31 -34 0
398 6 49 -31 0
-31 66 64 -49 0
399 -31 -6 49 0
6 -30 -49 31 0
420 -14 31 -34 0
66 31 64 49 0
399 -49 -6 31 0
-399 49 -6 31 0
398 6 31 -49 0
-38 -58 21 -1 0
-31 -49 -6 -399 0
-398 6 49 31 0
728 -113 96 -114 0
-728 -113 96 114 0
727 -96 -114 -113 0
-727 -96 114 -113 0
-671 98 99 -81 0
724 -113 37 58 0
-420 -14 34 31 0
1410 -289 235 0
-1458 301 283 0
-31 52 49 0
1457 -301 -283 0
-1457 301 -283 0
-1441 297 296 0
1441 -297 296 0
1439 -297 -296 0
-1439 297 -296 0
-1239 -227 245 0
1239 -227 -245 0
-172 -168 134 0
-186 -184 168 0
-1042 193 194 0
1042 193 -194 0
-1381 282 -264 0
1381 -282 -264 0
-1382 282 264 0
-282 1382 264 0
1040 -193 -194 0
776 -126 72 0
-776 126 72 0
775 -126 -72 0
-775 126 -72 0
-1040 -193 194 0
1240 227 -245 0
-1240 227 245 0
-1213 219 239 0
1200 -235 163 0
447 -24 -42 0
-447 42 -24 0
333 -6 -1 0
172 -99 116 0
179 198 161 0
-349 -13 14 0
-226 225 206 0
-1183 231 -230 0
206 191 -209 0
-333 6 -1 0
-920 145 163 0
-348 13 -6 0
-283 302 266 0
-919 -145 163 0
-303 -302 -285 0
303 285 -302 0
919 -145 -163 0
-257 239 -254 0
429 -19 -37 0
1409 -289 -235 0
920 145 -163 0
24 -25 -6 0
-1480 289 307 0
1480 289 -307 0
-138 155 -174 0
-235 -308 307 0
6 -24 -25 0
31 49 30 0
-665 98 44 0
172 -168 -134 0
-98 -116 -115 0
849 -145 -127 0
-850 145 127 0
-155 -99 116 0
86 87 49 0
-301 -302 -266 0
282 -265 -283 0
-1409 289 -235 0
-429 -19 37 0
303 -285 302 0
1213 -239 219 0
-780 -37 127 0
132 -168 149 0
-31 -66 49 0
-1410 289 235 0
779 37 -127 0
24 6 25 0
64 -44 45 0
905 -159 122 0
129 147 -149 0
31 -66 -49 0
172 168 134 0
-1479 -289 307 0
1479 -289 -307 0
-303 285 302 0
448 24 -42 0
-1214 -219 239 0
-448 24 42 0
1214 -239 -219 0
-905 159 122 0
-129 -147 -149 0
-849 145 -127 0
-45 44 64 0
155 137 -116 0
147 129 166 0
115 132 134 0
-114 -132 -131 0
-120 99 102 0
121 -103 122 0
-21 37 58 0
1 37 58 0
-34 -52 -49 0
850 -145 127 0
14 52 49 0
-250 -231 248 0
668 -98 97 0
359 -19 -1 0
-246 -247 229 0
250 286 266 0
-668 98 97 0
1458 -301 283 0
-186 -204 -206 0
665 -98 44 0
155 137 99 0
350 13 -14 0
-350 14 13 0
-21 -1 -23 0
-116 -134 -115 0
-43 -44 -6 0
-127 -164 163 0
-430 19 37 0
-250 269 266 0
250 269 -266 0
-250 -269 -266 0
250 269 215 0
-138 155 -157 0
-1418 291 -235 0
1418 -291 -235 0
-1394 285 -266 0
1394 -285 -266 0
1001 -184 -164 0
-1001 184 -164 0
1000 166 -184 0
-1000 184 166 0
-116 -134 -132 0
77 -37 58 0
348 -13 -6 0
349 -13 -14 0
6 27 44 0
-248 -265 -266 0
264 -265 247 0
25 -24 -6 0
-334 6 1 0
138 -155 -157 0
-203 184 -164 0
174 193 192 0
-203 -184 149 0
210 -192 209 0
-44 -43 -27 0
-1495 311 292 0
347 -13 6 0
-134 -204 -206 0
178 -159 122 0
430 19 -37 0
1495 -311 292 0
-1077 -203 204 0
-228 229 211 0
-164 163 -219 0
-194 -159 -195 0
206 204 -134 0
179 -215 214 0
-196 214 -213 0
-195 212 -213 0
983 -161 -179 0
203 184 164 0
222 -204 -219 0
203 -149 -184 0
-250 231 214 0
250 231 -214 0
-359 19 -1 0
-301 -302 283 0
-817 137 99 0
817 -137 99 0
1080 186 -204 0
-1080 204 186 0
-725 113 -37 0
725 -113 -37 0
54 72 -49 0
45 -81 -44 0
-1252 248 247 0
1252 -248 247 0
1249 -248 -230 0
-1249 -230 248 0
-983 -161 179 0
982 -178 -179 0
-982 -178 179 0
780 -37 -127 0
-58 -38 -37 0
-620 86 -49 0
620 -49 -86 0
-1159 225 206 0
1159 206 -225 0
417 14 -34 0
-417 14 34 0
-42 -60 58 0
-347 13 6 0
334 1 -6 0
193 -157 192 0
-1200 235 163 0
-147 -129 166 0
250 -231 -248 0
206 -186 204 0
1186 -231 213 0
1199 -235 -163 0
-1199 235 -163 0
138 -155 -174 0
-25 6 27 0
360 -19 1 0
-212 230 -229 0
291 -292 254 0
-193 -157 -192 0
1077 -203 -204 0
-779 37 127 0
191 172 -209 0
226 -172 -206 0
172 225 -226 0
-122 161 159 0
-360 19 1 0
-1186 231 213 0
174 -193 -192 0
-172 -206 209 0
1183 -231 -230 0
-31 -49 30 0
193 -122 192 0
-193 -122 -192 0
-52 -72 49 0
72 54 52 0
23 21 0
-64 -66 0
259 296 0
-45 81 0
-96 97 0
25 -27 0
-161 -198 0
-122 -178 0
269 286 0
206 296 0
-137 -155 0
266 265 0
38 58 0
-161 -159 0
-132 168 0
-77 37 0
-58 60 0
321 -1542 0
-321 -1544 0
78 96 0
295 296 0
-168 186 0
-77 -58 0
296 222 0
43 44 0
-46 64 0
286 -285 0
-103 -102 0
-99 120 0
-122 -121 0
-122 103 0
114 132 0
131 132 0
52 34 0
301 302 0
292 -254 0
-157 -121 0
-291 292 0
131 -149 0
-282 283 0
283 265 0
-58 96 0
42 60 0
-54 -72 0
-103 -49 0
-66 -103 0
-214 213 0
196 -214 0
213 195 0
-178 159 0
-225 226 0
-161 122 0
-222 219 0
235 308 0
-307 308 0
97 -43 0
246 247 0
228 -229 0
204 -222 0
184 186 0
212 -230 0
-230 229 0
-239 257 0
98 116 0
-214 215 0
192 -210 0
-210 -209 0
215 -179 0
-212 213 0
-198 -179 0
115 116 0
194 195 0
-211 -229 0
-49 -87 0
266 248 0
-247 265 0
-264 265 0
-37 96 0
-27 -6 0
195 159 0
-149 168 0
1 23 0
166 -164 0
277 296 0
-191 209 0
-86 -87 0
134 116 0
-229 247 0
-163 219 0
-163 164 0
173 -174 0
30 -6 0
60 97 0
219 164 0
127 164 0
-102 120 0
81 44 0
257 254 0
